results/res_prop_muc/res_Cimatti_mathsat_cores/QF_UF/NEQ006_size3.smt.smt2.out

real	0m0.463s
user	0m0.272s
sys	0m0.018s
