results/res_prop_muc/res_Cimatti_mathsat_cores/QF_UF/NEQ006_size3.smt.smt2.res
unsat
( _c0
  _c1
  _c103
  _c104
  _c105
  _c106
  _c107
  _c108
  _c109
  _c110
  _c111
  _c112
  _c113
  _c114
  _c115
  _c116
  _c117
  _c15
  _c163
  _c164
  _c165
  _c166
  _c167
  _c168
  _c171
  _c187
  _c188
  _c189
  _c19
  _c191
  _c192
  _c193
  _c196
  _c197
  _c198
  _c2
  _c200
  _c201
  _c202
  _c205
  _c206
  _c207
  _c209
  _c210
  _c211
  _c214
  _c215
  _c216
  _c218
  _c219
  _c220
  _c223
  _c224
  _c225
  _c227
  _c228
  _c229
  _c23
  _c232
  _c233
  _c234
  _c236
  _c237
  _c238
  _c24
  _c240
  _c241
  _c245
  _c249
  _c254
  _c255
  _c256
  _c258
  _c259
  _c260
  _c262
  _c263
  _c264
  _c265
  _c266
  _c267
  _c268
  _c269
  _c270
  _c28
  _c290
  _c291
  _c292
  _c294
  _c295
  _c296
  _c299
  _c300
  _c301
  _c303
  _c304
  _c305
  _c308
  _c309
  _c310
  _c312
  _c313
  _c314
  _c32
  _c33
  _c330
  _c332
  _c334
  _c335
  _c340
  _c341
  _c364
  _c365
  _c366
  _c367
  _c368
  _c369
  _c370
  _c371
  _c372
  _c373
  _c374
  _c375
  _c376
  _c377
  _c378
  _c379
  _c380
  _c381
  _c382
  _c383
  _c386
  _c391
  _c392
  _c395
  _c400
  _c401
  _c404
  _c407
  _c410
  _c413
  _c416
  _c419
  _c420
  _c421
  _c422
  _c423
  _c424
  _c425
  _c426
  _c427
  _c437
  _c440
  _c443
  _c446
  _c447
  _c448
  _c449
  _c450
  _c451
  _c452
  _c453
  _c454
  _c455
  _c456
  _c457
  _c458
  _c459
  _c460
  _c461
  _c462
  _c463
  _c464
  _c467
  _c470
  _c485
  _c486
  _c487
  _c488
  _c489
  _c490
  _c491
  _c492
  _c6
  _c67
  _c68
  _c69
  _c7
  _c70
  _c71
  _c72
  _c73
  _c74
  _c75
  _c8 )
